
Gurobi 10.0.1 (linux64) logging started Sun Nov 26 16:19:14 2023

Set parameter LogFile to value "ArtificialInstance/ExperimentV2/S3T5K2/BaSp/gurobi91.txt"
Gurobi Optimizer version 10.0.1 build v10.0.1rc0 (linux64)

CPU model: AMD EPYC 7H12 64-Core Processor, instruction set [SSE2|AVX|AVX2]
Thread count: 128 physical cores, 128 logical processors, using up to 32 threads

Academic license 656792 - for non-commercial use only - registered to b.___@student.vu.nl
Optimize a model with 3600 rows, 5440 columns and 18400 nonzeros
Model fingerprint: 0x64addf4a
Variable types: 0 continuous, 5440 integer (5440 binary)
Coefficient statistics:
  Matrix range     [1e+00, 1e+00]
  Objective range  [1e+00, 2e+01]
  Bounds range     [1e+00, 1e+00]
  RHS range        [1e+00, 1e+00]
Found heuristic solution: objective 641.0328958
Presolve time: 0.02s
Presolved: 3600 rows, 5440 columns, 18400 nonzeros
Variable types: 0 continuous, 5440 integer (5440 binary)

Root relaxation: objective 4.673236e+01, 2472 iterations, 0.06 seconds (0.05 work units)

    Nodes    |    Current Node    |     Objective Bounds      |     Work
 Expl Unexpl |  Obj  Depth IntInf | Incumbent    BestBd   Gap | It/Node Time

     0     0   46.73236    0  720  641.03290   46.73236  92.7%     -    0s
H    0     0                     270.6815876   46.73236  82.7%     -    0s
H    0     0                      87.8587277   46.73236  46.8%     -    0s
H    0     0                      86.5852034   53.30461  38.4%     -    0s
     0     0   53.74697    0 1104   86.58520   53.74697  37.9%     -    0s
H    0     0                      80.3018175   53.74697  33.1%     -    0s
     0     0   59.96812    0 1099   80.30182   59.96812  25.3%     -    0s
     0     0   59.99217    0 1147   80.30182   59.99217  25.3%     -    0s
     0     0   59.99217    0 1147   80.30182   59.99217  25.3%     -    0s
H    0     0                      78.8568480   63.65930  19.3%     -    1s
     0     0   63.65930    0 1322   78.85685   63.65930  19.3%     -    1s
H    0     0                      77.7481375   63.65930  18.1%     -    1s
     0     0   64.00649    0 1230   77.74814   64.00649  17.7%     -    1s
     0     0   64.03633    0 1249   77.74814   64.03633  17.6%     -    1s
     0     0   64.03633    0 1253   77.74814   64.03633  17.6%     -    1s
     0     0   64.52023    0 1265   77.74814   64.52023  17.0%     -    1s
     0     0   64.74715    0 1264   77.74814   64.74715  16.7%     -    2s
     0     0   64.75303    0 1259   77.74814   64.75303  16.7%     -    2s
     0     0   64.76545    0 1259   77.74814   64.76545  16.7%     -    2s
     0     0   64.76545    0 1262   77.74814   64.76545  16.7%     -    2s
H    0     0                      76.9453471   64.76545  15.8%     -    2s
     0     0   65.12589    0 1328   76.94535   65.12589  15.4%     -    2s
     0     0   65.18549    0 1261   76.94535   65.18549  15.3%     -    2s
     0     0   65.18560    0 1254   76.94535   65.18560  15.3%     -    2s
     0     0   65.48798    0 1207   76.94535   65.48798  14.9%     -    2s
     0     0   65.53847    0 1245   76.94535   65.53847  14.8%     -    2s
     0     0   65.53847    0 1249   76.94535   65.53847  14.8%     -    2s
     0     0   66.07540    0 1222   76.94535   66.07540  14.1%     -    2s
     0     0   66.09740    0 1229   76.94535   66.09740  14.1%     -    2s
     0     0   66.10058    0 1262   76.94535   66.10058  14.1%     -    3s
     0     0   66.12671    0 1265   76.94535   66.12671  14.1%     -    3s
     0     0   66.32806    0 1125   76.94535   66.32806  13.8%     -    3s
     0     0   66.36547    0 1272   76.94535   66.36547  13.7%     -    3s
     0     0   66.36663    0 1277   76.94535   66.36663  13.7%     -    3s
     0     0   66.36713    0 1268   76.94535   66.36713  13.7%     -    3s
     0     0   66.36713    0 1269   76.94535   66.36713  13.7%     -    3s
     0     0   66.36730    0 1256   76.94535   66.36730  13.7%     -    3s
     0     0   66.36730    0 1253   76.94535   66.36730  13.7%     -    3s
     0     0   66.36730    0 1261   76.94535   66.36730  13.7%     -    3s
     0     0   66.36730    0 1215   76.94535   66.36730  13.7%     -    3s
H    0     0                      76.5938747   66.36730  13.4%     -    4s
     0     2   66.36730    0 1213   76.59387   66.36730  13.4%     -    4s
     7    14   66.95988    3  653   76.59387   66.54666  13.1%   817    5s

Cutting planes:
  Gomory: 7
  MIR: 2
  Zero half: 260
  RLT: 66

Explored 790 nodes (249158 simplex iterations) in 8.85 seconds (8.24 work units)
Thread count was 32 (of 128 available processors)

Solution count 9: 76.5939 76.9453 77.7481 ... 641.033

Optimal solution found (tolerance 1.00e-04)
Best objective 7.659387471372e+01, best bound 7.659387471372e+01, gap 0.0000%
